es_decr_min = int_search([es[11],es[3],es[8],es[2],es[5],es[10],es[9],es[1],es[4],es[6],es[7],vs[1],vs[4],vs[2],vs[12],vs[5],vs[11],vs[8],vs[10],vs[3],vs[6],vs[9],vs[7]], input_order, indomain_min, complete);
nbV = 12;
nbE = 11;
nbT = 10;
adj = [|false,false,false,false,false,false,false,false,false,false,true
|false,true,true,false,false,false,false,false,false,false,false
|true,false,false,false,false,false,false,false,false,false,false
|false,false,true,false,false,false,false,false,false,false,false
|false,false,false,false,false,false,false,true,true,false,false
|false,false,false,true,true,false,false,false,false,false,false
|false,false,false,true,false,true,false,false,false,false,false
|false,false,false,false,false,false,false,false,false,true,false
|false,false,false,false,false,false,true,false,true,false,false
|true,false,false,false,true,false,false,false,false,false,false
|false,false,false,false,false,true,true,false,false,false,true
|false,true,false,false,false,false,false,true,false,true,false
|];
endnodes = [|false,false,true,false,false,false,false,false,false,true,false,false
|false,true,false,false,false,false,false,false,false,false,false,true
|false,true,false,true,false,false,false,false,false,false,false,false
|false,false,false,false,false,true,true,false,false,false,false,false
|false,false,false,false,false,true,false,false,false,true,false,false
|false,false,false,false,false,false,true,false,false,false,true,false
|false,false,false,false,false,false,false,false,true,false,true,false
|false,false,false,false,true,false,false,false,false,false,false,true
|false,false,false,false,true,false,false,false,true,false,false,false
|false,false,false,false,false,false,false,true,false,false,false,true
|true,false,false,false,false,false,false,false,false,false,true,false
|];
terminals = {1,2,3,4,5,6,7,8,9,10};
ws = [189084,396402,580177,68716,251287,60295,52632,549960,229509,238283,766771];
cs = [9,9,11,7,7,3,5,10,5,8,11];
ds = [0,1,2,2,3,2,2,1,2,2,3,0];
